
Gurobi 8.1.1 (linux64, Python) logging started Sat Jul 20 13:00:07 2019

Academic license - for non-commercial use only
Warning: variable name "x[(7, 1),1]" has a space
Warning: to let Gurobi read it back, use rlp format
